14 48
1 2 0
1 3 0
1 4 1
1 5 0
1 6 0
1 7 1
1 8 1
1 9 0
1 10 1
1 11 1
1 12 1
1 13 1
1 14 1
2 3 1
2 4 1
2 5 0
2 6 1
2 7 0
2 8 1
2 9 0
2 10 1
2 11 1
2 12 1
2 13 1
2 14 0
3 4 1
3 5 0
3 6 0
3 7 0
3 8 1
3 9 0
3 10 0
3 11 0
3 12 0
3 13 1
3 14 1
4 5 0
4 6 1
4 7 1
4 8 0
4 9 1
4 10 0
4 11 1
4 12 1
4 13 0
4 14 1
5 6 1
5 7 0
5 8 1
5 9 1
5 10 0
5 11 0
5 12 0
5 13 0
5 14 0
6 7 1
6 8 0
6 9 1
6 10 0
6 11 0
6 12 1
6 13 1
6 14 0
7 8 1
7 9 1
7 10 0
7 11 0
7 12 1
7 13 1
7 14 0
8 9 0
8 10 1
8 11 0
8 12 1
8 13 0
8 14 0
9 10 0
9 11 0
9 12 1
9 13 1
9 14 1
10 11 1
10 12 0
10 13 1
10 14 1
11 12 0
11 13 0
11 14 1
12 13 1
12 14 1
13 14 0
